Route #1: 17 40 9 39 72 31 65 38 10 58 12
Route #2: 35 19 14 59 66 11 53 7 26
Route #3: 67 8 54 13 57 15 5 37 20 70 60 71 69 36 47
Route #4: 21 61 28 62 22 64 42 41 43 1 63
Route #5: 16 23 56 49 24 18 55 25 50 32 44 3 51
Route #6: 6 33 73 2 74 30 48 29 45 27 52
Route #7: 46 34 4 68 75
Cost 735